NAME : G100_1212_01
COMMENT : Generated CVRP instance (n=100)
TYPE : CVRP
DIMENSION : 101
EDGE_WEIGHT_TYPE : EUC_2D
CAPACITY : 5
NODE_COORD_SECTION
1    944  743 
2    872  862 
3    820  943 
4    296  193 
5    20   749 
6    334  140 
7    154  319 
8    718  907 
9    79   563 
10   287  55  
11   77   846 
12   794  710 
13   425  71  
14   25   754 
15   14   735 
16   802  958 
17   920  815 
18   248  90  
19   297  681 
20   307  124 
21   371  8   
22   373  44  
23   756  929 
24   319  116 
25   334  153 
26   236  29  
27   114  698 
28   946  765 
29   397  1   
30   291  166 
31   160  738 
32   361  38  
33   788  862 
34   811  866 
35   289  159 
36   8    692 
37   412  193 
38   128  199 
39   96   231 
40   3    741 
41   842  877 
42   751  857 
43   296  75  
44   48   110 
45   304  54  
46   262  91  
47   254  71  
48   231  133 
49   4    671 
50   720  825 
51   726  841 
52   90   658 
53   813  891 
54   288  167 
55   20   663 
56   879  726 
57   128  742 
58   291  101 
59   235  160 
60   290  105 
61   729  894 
62   861  933 
63   371  2   
64   46   19  
65   19   700 
66   298  179 
67   855  929 
68   707  850 
69   924  955 
70   176  186 
71   852  686 
72   57   677 
73   288  52  
74   2    805 
75   217  202 
76   803  930 
77   289  126 
78   780  983 
79   350  2   
80   254  699 
81   207  111 
82   63   720 
83   847  954 
84   18   605 
85   286  157 
86   827  789 
87   360  115 
88   53   202 
89   30   844 
90   216  52  
91   882  724 
92   844  899 
93   25   750 
94   835  850 
95   8    791 
96   31   701 
97   817  835 
98   364  105 
99   100  709 
100  319  146 
101  277  259 
DEMAND_SECTION
1    0   
2    1   
3    1   
4    1   
5    1   
6    1   
7    1   
8    1   
9    1   
10   1   
11   1   
12   1   
13   1   
14   1   
15   1   
16   1   
17   1   
18   1   
19   1   
20   1   
21   1   
22   1   
23   1   
24   1   
25   1   
26   1   
27   1   
28   1   
29   1   
30   1   
31   1   
32   1   
33   1   
34   1   
35   1   
36   1   
37   1   
38   1   
39   1   
40   1   
41   1   
42   1   
43   1   
44   1   
45   1   
46   1   
47   1   
48   1   
49   1   
50   1   
51   1   
52   1   
53   1   
54   1   
55   1   
56   1   
57   1   
58   1   
59   1   
60   1   
61   1   
62   1   
63   1   
64   1   
65   1   
66   1   
67   1   
68   1   
69   1   
70   1   
71   1   
72   1   
73   1   
74   1   
75   1   
76   1   
77   1   
78   1   
79   1   
80   1   
81   1   
82   1   
83   1   
84   1   
85   1   
86   1   
87   1   
88   1   
89   1   
90   1   
91   1   
92   1   
93   1   
94   1   
95   1   
96   1   
97   1   
98   1   
99   1   
100  1   
101  1   
DEPOT_SECTION
1
-1
EOF
